p wcnf 194 388 389 
1 173 111 0 
1 -177 30 0 
1 43 184 0 
1 -51 189 0 
1 127 79 0 
1 15 -124 0 
1 -170 -187 0 
1 -61 -150 0 
1 129 -113 0 
1 60 -59 0 
1 114 60 0 
1 -28 -149 0 
1 -178 -181 0 
1 146 84 0 
1 -161 -8 0 
1 -51 101 0 
1 102 3 0 
1 164 153 0 
1 -167 107 0 
1 -52 -145 0 
1 60 -36 0 
1 -103 31 0 
1 -53 -5 0 
1 -38 -101 0 
1 -127 -126 0 
1 117 42 0 
1 -162 160 0 
1 -95 -109 0 
1 -98 42 0 
1 114 -100 0 
1 5 172 0 
1 -117 -142 0 
1 94 80 0 
1 51 -184 0 
1 -162 -103 0 
1 -59 -147 0 
1 -105 -175 0 
1 -175 24 0 
1 -50 -67 0 
1 -183 112 0 
1 25 108 0 
1 68 -134 0 
1 182 16 0 
1 125 110 0 
1 43 37 0 
1 154 -12 0 
1 83 18 0 
1 -20 149 0 
1 182 25 0 
1 -128 -121 0 
1 -132 -183 0 
1 183 133 0 
1 -64 92 0 
1 -62 107 0 
1 161 52 0 
1 -125 115 0 
1 -91 -79 0 
1 93 62 0 
1 15 -159 0 
1 27 -32 0 
1 -147 42 0 
1 157 149 0 
1 -14 -152 0 
1 10 168 0 
1 168 51 0 
1 -53 167 0 
1 -94 -63 0 
1 -75 -180 0 
1 -187 -80 0 
1 -97 162 0 
1 23 -16 0 
1 132 -192 0 
1 -98 -111 0 
1 -74 120 0 
1 64 -163 0 
1 80 144 0 
1 54 -138 0 
1 -31 -135 0 
1 31 175 0 
1 115 97 0 
1 86 194 0 
1 11 194 0 
1 -165 -50 0 
1 -151 142 0 
1 -37 -41 0 
1 -169 134 0 
1 -21 184 0 
1 174 -56 0 
1 74 141 0 
1 -33 131 0 
1 36 -9 0 
1 -2 -68 0 
1 -33 44 0 
1 22 -58 0 
1 45 83 0 
1 -5 -139 0 
1 116 -9 0 
1 -46 -29 0 
1 124 98 0 
1 -91 142 0 
1 -46 127 0 
1 -128 168 0 
1 42 173 0 
1 -140 124 0 
1 101 8 0 
1 -74 26 0 
1 3 -59 0 
1 156 160 0 
1 -157 -183 0 
1 -92 -24 0 
1 -4 25 0 
1 28 -13 0 
1 -167 14 0 
1 -92 143 0 
1 -175 144 0 
1 176 -64 0 
1 -177 62 0 
1 89 -163 0 
1 79 160 0 
1 138 -147 0 
1 -44 172 0 
1 -106 -42 0 
1 125 -113 0 
1 180 55 0 
1 -10 24 0 
1 135 -194 0 
1 48 -55 0 
1 -114 57 0 
1 106 147 0 
1 -107 -69 0 
1 154 -77 0 
1 47 136 0 
1 -90 -181 0 
1 26 -19 0 
1 92 -123 0 
1 54 166 0 
1 30 -8 0 
1 82 16 0 
1 132 44 0 
1 -139 24 0 
1 -80 172 0 
1 -143 134 0 
1 46 -62 0 
1 76 92 0 
1 -43 155 0 
1 139 65 0 
1 -23 -93 0 
1 -169 35 0 
1 55 -177 0 
1 133 -86 0 
1 -85 36 0 
1 130 -81 0 
1 -119 24 0 
1 -155 1 0 
1 139 -95 0 
1 146 175 0 
1 -3 -19 0 
1 -12 -75 0 
1 103 -79 0 
1 -69 -187 0 
1 -100 -33 0 
1 -37 71 0 
1 14 -62 0 
1 -139 -21 0 
1 112 111 0 
1 16 -65 0 
1 -123 171 0 
1 -191 137 0 
1 186 156 0 
1 -162 -55 0 
1 67 91 0 
1 64 -53 0 
1 58 25 0 
1 130 137 0 
1 149 139 0 
1 139 -15 0 
1 151 88 0 
1 107 2 0 
1 -152 31 0 
1 -82 -84 0 
1 62 143 0 
1 -31 -168 0 
1 -44 96 0 
1 177 27 0 
1 155 184 0 
1 160 -54 0 
1 -129 63 0 
1 193 -132 0 
1 -111 98 0 
1 -1 163 0 
1 192 -39 0 
1 -62 -87 0 
1 -83 66 0 
1 73 -181 0 
1 143 125 0 
1 9 109 0 
1 -143 -5 0 
1 97 -28 0 
1 104 -105 0 
1 168 169 0 
1 -142 133 0 
1 -176 84 0 
1 24 51 0 
1 123 42 0 
1 74 156 0 
1 81 -98 0 
1 -149 -189 0 
1 83 25 0 
1 -5 -60 0 
1 8 165 0 
1 -113 26 0 
1 -168 -164 0 
1 96 29 0 
1 161 -56 0 
1 17 -141 0 
1 67 112 0 
1 103 172 0 
1 139 -7 0 
1 -84 125 0 
1 88 102 0 
1 32 3 0 
1 112 -17 0 
1 188 131 0 
1 23 -51 0 
1 -145 79 0 
1 -17 164 0 
1 -54 5 0 
1 -59 -26 0 
1 -177 22 0 
1 -134 -116 0 
1 -147 146 0 
1 142 72 0 
1 -148 -173 0 
1 122 95 0 
1 -179 190 0 
1 -20 116 0 
1 149 100 0 
1 72 28 0 
1 168 194 0 
1 -70 -49 0 
1 95 2 0 
1 132 -49 0 
1 98 -76 0 
1 -172 -147 0 
1 -168 7 0 
1 109 133 0 
1 143 -163 0 
1 91 147 0 
1 141 67 0 
1 78 -85 0 
1 56 7 0 
1 -90 47 0 
1 -34 -80 0 
1 114 -36 0 
1 107 -182 0 
1 140 9 0 
1 -167 53 0 
1 -53 128 0 
1 115 15 0 
1 -178 9 0 
1 -155 134 0 
1 -130 -179 0 
1 -35 -146 0 
1 94 -37 0 
1 -146 95 0 
1 125 -25 0 
1 -152 44 0 
1 -150 -134 0 
1 19 -35 0 
1 97 -98 0 
1 177 -34 0 
1 161 -117 0 
1 -64 -61 0 
1 18 -191 0 
1 -172 -78 0 
1 -165 45 0 
1 26 167 0 
1 -164 -73 0 
1 168 31 0 
1 144 -184 0 
1 -81 191 0 
1 -144 -154 0 
1 -4 -139 0 
1 22 -41 0 
1 15 -63 0 
1 -74 186 0 
1 -82 105 0 
1 94 138 0 
1 -116 123 0 
1 48 -20 0 
1 93 -110 0 
1 52 -194 0 
1 128 65 0 
1 -80 171 0 
1 53 150 0 
1 -60 -94 0 
1 -79 -169 0 
1 -106 -113 0 
1 166 -53 0 
1 -31 18 0 
1 143 -28 0 
1 -63 86 0 
1 -91 -185 0 
1 -31 -34 0 
1 -140 -157 0 
1 -71 80 0 
1 -170 54 0 
1 -184 -194 0 
1 20 -70 0 
1 105 18 0 
1 29 -25 0 
1 94 -83 0 
1 103 -28 0 
1 -158 186 0 
1 145 -53 0 
1 165 -9 0 
1 -90 -17 0 
1 -102 78 0 
1 -83 167 0 
1 -20 -131 0 
1 -43 51 0 
1 124 134 0 
1 10 -141 0 
1 -51 -114 0 
1 124 17 0 
1 169 -29 0 
1 -190 -82 0 
1 158 -94 0 
1 46 -79 0 
1 -17 181 0 
1 -167 -22 0 
1 171 180 0 
1 53 -184 0 
1 43 -51 0 
1 83 -84 0 
1 -53 -73 0 
1 -155 190 0 
1 -23 -69 0 
1 -143 -109 0 
1 154 -90 0 
1 135 157 0 
1 17 92 0 
1 -131 193 0 
1 191 136 0 
1 -91 83 0 
1 20 26 0 
1 -35 -127 0 
1 -72 -177 0 
1 59 1 0 
1 -154 41 0 
1 32 -2 0 
1 -158 172 0 
1 -67 175 0 
1 100 -101 0 
1 70 -23 0 
1 112 136 0 
1 96 -82 0 
1 50 187 0 
1 -56 16 0 
1 152 162 0 
1 90 -69 0 
1 40 -166 0 
1 50 13 0 
1 158 104 0 
1 -78 -167 0 
1 -2 194 0 
1 64 81 0 
1 77 19 0 
1 36 -179 0 
1 -163 -150 0 
1 -154 169 0 
1 145 112 0 
1 -103 -22 0 
1 -89 103 0 
1 170 -128 0 
1 -174 81 0 
1 88 71 0 
1 169 192 0 
1 -40 -173 0 
1 115 -82 0 
1 29 117 0 
1 103 -127 0 
1 65 -96 0 
1 169 -35 0 
1 89 75 0 
1 99 -182 0 
1 46 19 0 
1 -48 -72 0 
